39
[-1, 95, 59, 0, 12, 69, 13, 0, 45, 0, 91, 93, 0, 97, 0, 38, 22, 8, 32, 0, 94, 0, 29, 0, 0, 93, 0, 0, 0, 0, 0, 0, 0, 46, 34, 0, 0, 0, 96, 
95, -1, 78, 0, 67, 68, 82, 74, 0, 91, 0, 0, 0, 68, 0, 0, 0, 48, 91, 0, 0, 74, 0, 77, 0, 0, 0, 0, 44, 0, 39, 78, 79, 56, 3, 0, 0, 0, 0, 
59, 78, -1, 53, 0, 0, 18, 82, 0, 46, 0, 18, 0, 0, 65, 31, 45, 8, 94, 35, 8, 71, 90, 0, 34, 0, 89, 0, 28, 0, 11, 0, 23, 23, 0, 0, 58, 0, 11, 
0, 0, 53, -1, 0, 53, 74, 0, 74, 36, 45, 18, 96, 67, 36, 71, 39, 0, 0, 0, 0, 0, 0, 58, 0, 2, 74, 11, 0, 0, 0, 61, 0, 0, 96, 0, 0, 31, 0, 
12, 67, 0, 0, -1, 15, 5, 64, 0, 54, 0, 0, 0, 98, 40, 21, 11, 85, 76, 0, 60, 11, 49, 0, 83, 27, 96, 0, 0, 49, 0, 93, 0, 18, 0, 0, 0, 29, 91, 
69, 68, 0, 53, 15, -1, 55, 0, 0, 0, 60, 0, 0, 25, 0, 0, 21, 0, 0, 53, 81, 0, 5, 69, 0, 0, 50, 49, 2, 76, 0, 0, 8, 0, 87, 0, 2, 77, 0, 
13, 82, 18, 74, 5, 55, -1, 23, 16, 0, 0, 0, 0, 0, 0, 58, 67, 77, 73, 40, 49, 0, 54, 0, 0, 0, 0, 15, 5, 9, 0, 53, 0, 0, 0, 0, 0, 0, 56, 
0, 74, 82, 0, 64, 0, 23, -1, 0, 98, 72, 0, 0, 42, 0, 0, 0, 0, 0, 0, 37, 88, 0, 90, 0, 0, 0, 51, 90, 5, 0, 0, 78, 36, 96, 0, 7, 0, 0, 
45, 0, 0, 74, 0, 0, 16, 0, -1, 4, 0, 80, 0, 0, 0, 0, 0, 100, 95, 0, 0, 88, 0, 90, 0, 0, 0, 0, 0, 84, 0, 0, 0, 0, 0, 75, 64, 38, 49, 
0, 91, 46, 36, 54, 0, 0, 98, 4, -1, 0, 48, 0, 0, 95, 0, 46, 68, 0, 0, 28, 75, 89, 78, 0, 100, 100, 0, 0, 99, 31, 0, 0, 0, 0, 50, 27, 28, 63, 
91, 0, 0, 45, 0, 60, 0, 72, 0, 0, -1, 0, 0, 4, 0, 100, 54, 0, 57, 0, 0, 65, 0, 85, 0, 0, 4, 72, 0, 0, 98, 0, 29, 48, 71, 21, 0, 26, 0, 
93, 0, 18, 18, 0, 0, 0, 0, 80, 48, 0, -1, 82, 47, 0, 24, 0, 69, 25, 0, 57, 98, 0, 71, 0, 26, 0, 0, 49, 0, 4, 0, 94, 0, 0, 0, 16, 0, 0, 
0, 0, 0, 96, 0, 0, 0, 0, 0, 0, 0, 82, -1, 0, 42, 0, 0, 76, 0, 0, 13, 0, 77, 69, 0, 50, 12, 0, 65, 70, 0, 0, 0, 0, 0, 0, 0, 0, 0, 
97, 68, 0, 67, 98, 25, 0, 42, 0, 0, 4, 47, 0, -1, 86, 0, 0, 58, 0, 0, 39, 19, 45, 83, 76, 99, 47, 0, 0, 0, 0, 30, 0, 3, 0, 26, 85, 0, 0, 
0, 0, 65, 36, 40, 0, 0, 0, 0, 95, 0, 0, 42, 86, -1, 0, 16, 68, 96, 45, 0, 96, 0, 91, 0, 0, 0, 35, 71, 0, 72, 86, 0, 0, 0, 31, 18, 71, 0, 
38, 0, 31, 71, 21, 0, 58, 0, 0, 0, 100, 24, 0, 0, 0, -1, 0, 0, 58, 0, 0, 36, 61, 6, 53, 48, 0, 15, 61, 28, 0, 0, 43, 77, 0, 92, 30, 26, 0, 
22, 0, 45, 39, 11, 21, 67, 0, 0, 46, 54, 0, 0, 0, 16, 0, -1, 58, 43, 0, 62, 0, 0, 0, 7, 29, 0, 42, 0, 0, 2, 0, 42, 14, 90, 68, 0, 0, 0, 
8, 48, 8, 0, 85, 0, 77, 0, 100, 68, 0, 69, 76, 58, 68, 0, 58, -1, 60, 0, 56, 1, 0, 70, 66, 0, 0, 16, 0, 0, 0, 78, 0, 0, 75, 91, 0, 5, 97, 
32, 91, 94, 0, 76, 0, 73, 0, 95, 0, 57, 25, 0, 0, 96, 58, 43, 60, -1, 71, 0, 0, 0, 0, 89, 81, 64, 93, 0, 0, 0, 0, 0, 0, 0, 45, 52, 0, 40, 
0, 0, 35, 0, 0, 53, 40, 0, 0, 0, 0, 0, 0, 0, 45, 0, 0, 0, 71, -1, 0, 82, 4, 0, 27, 74, 7, 0, 0, 12, 49, 10, 24, 0, 0, 0, 0, 0, 60, 
94, 0, 8, 0, 60, 81, 49, 37, 0, 28, 0, 57, 13, 39, 0, 0, 62, 56, 0, 0, -1, 50, 0, 84, 1, 37, 0, 54, 0, 62, 9, 37, 0, 0, 0, 35, 0, 56, 24, 
0, 74, 71, 0, 11, 0, 0, 88, 88, 75, 65, 98, 0, 19, 96, 36, 0, 1, 0, 82, 50, -1, 81, 0, 0, 96, 0, 0, 0, 72, 55, 0, 93, 0, 0, 0, 0, 75, 43, 
29, 0, 90, 0, 49, 5, 54, 0, 0, 89, 0, 0, 77, 45, 0, 61, 0, 0, 0, 4, 0, 81, -1, 44, 24, 0, 0, 48, 49, 53, 64, 97, 0, 0, 0, 63, 0, 29, 76, 
0, 77, 0, 58, 0, 69, 0, 90, 90, 78, 85, 71, 69, 83, 91, 6, 0, 70, 0, 0, 84, 0, 44, -1, 0, 4, 39, 37, 57, 0, 0, 62, 0, 50, 43, 0, 0, 0, 0, 
0, 0, 34, 0, 83, 0, 0, 0, 0, 0, 0, 0, 0, 76, 0, 53, 7, 66, 89, 27, 1, 0, 24, 0, -1, 0, 51, 0, 0, 0, 17, 17, 19, 0, 0, 0, 47, 0, 0, 
93, 0, 0, 2, 27, 0, 0, 0, 0, 100, 0, 26, 50, 99, 0, 48, 29, 0, 81, 74, 37, 96, 0, 4, 0, -1, 0, 60, 4, 0, 0, 5, 0, 50, 0, 34, 0, 89, 88, 
0, 0, 89, 74, 96, 50, 0, 0, 0, 100, 4, 0, 12, 47, 0, 0, 0, 0, 64, 7, 0, 0, 0, 39, 51, 0, -1, 28, 15, 21, 70, 94, 0, 0, 43, 56, 83, 0, 59, 
0, 0, 0, 11, 0, 49, 15, 51, 0, 0, 72, 0, 0, 0, 35, 15, 42, 16, 93, 0, 54, 0, 48, 37, 0, 60, 28, -1, 0, 99, 29, 0, 80, 87, 0, 34, 87, 0, 98, 
0, 44, 28, 0, 0, 2, 5, 90, 0, 0, 0, 49, 65, 0, 71, 61, 0, 0, 0, 0, 0, 0, 49, 57, 0, 4, 15, 0, -1, 0, 87, 0, 0, 82, 0, 0, 0, 0, 0, 
0, 0, 0, 0, 49, 76, 9, 5, 84, 99, 0, 0, 70, 0, 0, 28, 0, 0, 0, 12, 62, 72, 53, 0, 0, 0, 21, 99, 0, -1, 75, 0, 35, 0, 0, 50, 0, 50, 56, 
0, 39, 11, 0, 0, 0, 0, 0, 0, 31, 98, 4, 0, 0, 72, 0, 2, 0, 0, 49, 9, 55, 64, 0, 17, 0, 70, 29, 87, 75, -1, 0, 0, 21, 54, 0, 0, 0, 0, 
0, 78, 0, 61, 93, 0, 53, 0, 0, 0, 0, 0, 0, 30, 86, 0, 0, 78, 0, 10, 37, 0, 97, 62, 17, 5, 94, 0, 0, 0, 0, -1, 45, 60, 0, 0, 0, 22, 65, 
0, 79, 23, 0, 0, 8, 0, 78, 0, 0, 29, 94, 0, 0, 0, 43, 42, 0, 0, 24, 0, 93, 0, 0, 19, 0, 0, 80, 0, 35, 0, 45, -1, 0, 0, 0, 0, 30, 62, 
46, 56, 23, 0, 18, 0, 0, 36, 0, 0, 48, 0, 0, 3, 0, 77, 14, 0, 0, 0, 0, 0, 0, 50, 0, 50, 0, 87, 82, 0, 21, 60, 0, -1, 2, 0, 50, 31, 0, 
34, 3, 0, 96, 0, 87, 0, 96, 0, 0, 71, 0, 0, 0, 0, 0, 90, 75, 0, 0, 0, 0, 0, 43, 0, 0, 43, 0, 0, 0, 54, 0, 0, 2, -1, 79, 0, 0, 6, 
0, 0, 0, 0, 0, 0, 0, 0, 75, 50, 21, 0, 0, 26, 31, 92, 68, 91, 45, 0, 35, 0, 63, 0, 0, 34, 56, 34, 0, 50, 0, 0, 0, 0, 79, -1, 81, 10, 0, 
0, 0, 58, 0, 0, 2, 0, 7, 64, 27, 0, 16, 0, 85, 18, 30, 0, 0, 52, 0, 0, 0, 0, 0, 47, 0, 83, 87, 0, 0, 0, 0, 0, 50, 0, 81, -1, 10, 0, 
0, 0, 0, 31, 29, 77, 0, 0, 38, 28, 26, 0, 0, 0, 71, 26, 0, 5, 0, 0, 56, 75, 29, 0, 0, 89, 0, 0, 0, 50, 0, 22, 30, 31, 0, 10, 10, -1, 72, 
96, 0, 11, 0, 91, 0, 56, 0, 49, 63, 0, 0, 0, 0, 0, 0, 0, 97, 40, 60, 24, 43, 76, 0, 0, 88, 59, 98, 0, 56, 0, 65, 62, 0, 6, 0, 0, 72, -1]